sat
(model
; cardinality of BoundSet is 2
(declare-sort BoundSet 0)
; rep: @uc_BoundSet_0
; rep: @uc_BoundSet_1
; cardinality of UnboundSet is 2
(declare-sort UnboundSet 0)
; rep: @uc_UnboundSet_0
; rep: @uc_UnboundSet_1
(define-fun a () UnboundSet @uc_UnboundSet_0)
(define-fun b () UnboundSet @uc_UnboundSet_1)
(define-fun c () UnboundSet @uc_UnboundSet_0)
(define-fun d () BoundSet @uc_BoundSet_0)
(define-fun IsBelieveIn ((BOUND_VARIABLE_368 UnboundSet)) Bool true)
(define-fun ~IsGod ((BOUND_VARIABLE_368 UnboundSet)) Bool true)
(define-fun IsBurnIn ((BOUND_VARIABLE_368 UnboundSet)) Bool false)
(define-fun IsInHell ((BOUND_VARIABLE_368 UnboundSet)) Bool false)
(define-fun IsForever ((BOUND_VARIABLE_381 BoundSet)) Bool false)
(define-fun IsGod ((BOUND_VARIABLE_381 BoundSet)) Bool true)
)
